# Solution for model micodag
# Objective value = 8.2044785704363719e+00
s_0_1 0
s_1_0 0
s_0_2 0
s_2_0 0
s_0_4 0
s_4_0 3.1314737431688755e-01
s_1_2 0
s_2_1 4.6157850506361786e-01
s_1_3 0
s_3_1 1.9655274717494731e-01
s_2_4 0
s_4_2 3.3513632569943796e-01
s_4_5 0
s_5_4 2.9089355582019407e+00
s_0_0 6.7915630695006923e-01
s_1_1 6.5800919037429173e-01
s_2_2 6.4803673584268306e-01
s_3_3 0.623660755037097
s_4_4 2.9089355582019407e+00
s_5_5 1.1229440023268287e+00
Gamma_0_0 8.2410940229442220e-01
Gamma_0_1 0
Gamma_0_2 0
Gamma_0_3 0
Gamma_0_4 0
Gamma_0_5 0
Gamma_1_0 0
Gamma_1_1 8.1117765648117557e-01
Gamma_1_2 0
Gamma_1_3 0
Gamma_1_4 0
Gamma_1_5 0
Gamma_2_0 0
Gamma_2_1 6.7939569108408282e-01
Gamma_2_2 8.0500728931027921e-01
Gamma_2_3 0
Gamma_2_4 0
Gamma_2_5 0
Gamma_3_0 0
Gamma_3_1 4.4334269721621433e-01
Gamma_3_2 0
Gamma_3_3 7.8972194792667216e-01
Gamma_3_4 0
Gamma_3_5 0
Gamma_4_0 -5.5959572399803781e-01
Gamma_4_1 0
Gamma_4_2 -0.578909600628145
Gamma_4_3 0
Gamma_4_4 8.1809537615437722e-01
Gamma_4_5 0
Gamma_5_0 0
Gamma_5_1 0
Gamma_5_2 0
Gamma_5_3 0
Gamma_5_4 -8.3860392570999209e-01
Gamma_5_5 1.0596905219576274e+00
psi_0 2
psi_1 3
psi_2 2
psi_3 0
psi_4 1
psi_5 0
g_0_0 0
g_0_1 0
g_0_2 0
g_0_3 0
g_0_4 0
g_0_5 0
g_1_0 0
g_1_1 0
g_1_2 0
g_1_3 0
g_1_4 0
g_1_5 0
g_2_0 0
g_2_1 1
g_2_2 0
g_2_3 0
g_2_4 0
g_2_5 0
g_3_0 0
g_3_1 1
g_3_2 0
g_3_3 0
g_3_4 0
g_3_5 0
g_4_0 1
g_4_1 0
g_4_2 1
g_4_3 0
g_4_4 0
g_4_5 0
g_5_0 0
g_5_1 0
g_5_2 0
g_5_3 0
g_5_4 1
g_5_5 0
T_0 3.8690397622201544e-01
T_1 4.1853638062018206e-01
T_2 4.3380789312149659e-01
T_3 4.7214872024989063e-01
T_4 0.401552704821043
T_5 -1.1595381015580131e-01
